\ENCODING=ISO-8859-1
\Problem name: IloCplex

Minimize
 obj1: x_cu(0,7) + 10 x_cu(0,6) + 10 x_cu(0,5) + 10 x_cu(0,4) + 1000 x_cu(0,3)
       + 1000 x_cu(0,2) + 1000 x_cu(0,1) + 1000 x_cu(0,0) + x_cu(1,7)
       + 10 x_cu(1,6) + 10 x_cu(1,5) + 10 x_cu(1,4) + 1000 x_cu(1,3)
       + 1000 x_cu(1,2) + 1000 x_cu(1,1) + 1000 x_cu(1,0) + x_cu(2,7)
       + 10 x_cu(2,6) + 10 x_cu(2,5) + 10 x_cu(2,4) + 1000 x_cu(2,3)
       + 1000 x_cu(2,2) + 1000 x_cu(2,1) + 1000 x_cu(2,0) + x_cu(3,7)
       + 10 x_cu(3,6) + 10 x_cu(3,5) + 10 x_cu(3,4) + 1000 x_cu(3,3)
       + 1000 x_cu(3,2) + 1000 x_cu(3,1) + 1000 x_cu(3,0) + 10 x_du(0,7)
       + 100 x_du(0,6) + 100 x_du(0,5) + 100 x_du(0,4) + 1000 x_du(0,3)
       + 1000 x_du(0,2) + 1000 x_du(0,1) + 1000 x_du(0,0) + 10 x_du(1,7)
       + 100 x_du(1,6) + 100 x_du(1,5) + 100 x_du(1,4) + 1000 x_du(1,3)
       + 1000 x_du(1,2) + 1000 x_du(1,1) + 1000 x_du(1,0) + 10 x_du(2,7)
       + 100 x_du(2,6) + 100 x_du(2,5) + 100 x_du(2,4) + 1000 x_du(2,3)
       + 1000 x_du(2,2) + 1000 x_du(2,1) + 1000 x_du(2,0) + 10 x_du(3,7)
       + 100 x_du(3,6) + 100 x_du(3,5) + 100 x_du(3,4) + 1000 x_du(3,3)
       + 1000 x_du(3,2) + 1000 x_du(3,1) + 1000 x_du(3,0) + 0 z(0,0,7)
       + 0 z(0,0,6) + 0 z(0,0,5) + 0 z(0,0,4) + 0 z(0,0,3) + 0 z(0,0,2)
       + 0 z(0,0,1) + 0 z(0,0,0) + 0 z(0,1,7) + 0 z(0,1,6) + 0 z(0,1,5)
       + 0 z(0,1,4) + 0 z(0,1,3) + 0 z(0,1,2) + 0 z(0,1,1) + 0 z(0,1,0)
       + 0 z(0,2,7) + 0 z(0,2,6) + 0 z(0,2,5) + 0 z(0,2,4) + 0 z(0,2,3)
       + 0 z(0,2,2) + 0 z(0,2,1) + 0 z(0,2,0) + 0 z(0,3,7) + 0 z(0,3,6)
       + 0 z(0,3,5) + 0 z(0,3,4) + 0 z(0,3,3) + 0 z(0,3,2) + 0 z(0,3,1)
       + 0 z(0,3,0) + 0 z(1,0,7) + 0 z(1,0,6) + 0 z(1,0,5) + 0 z(1,0,4)
       + 0 z(1,0,3) + 0 z(1,0,2) + 0 z(1,0,1) + 0 z(1,0,0) + 0 z(1,1,7)
       + 0 z(1,1,6) + 0 z(1,1,5) + 0 z(1,1,4) + 0 z(1,1,3) + 0 z(1,1,2)
       + 0 z(1,1,1) + 0 z(1,1,0) + 0 z(1,2,7) + 0 z(1,2,6) + 0 z(1,2,5)
       + 0 z(1,2,4) + 0 z(1,2,3) + 0 z(1,2,2) + 0 z(1,2,1) + 0 z(1,2,0)
       + 0 z(1,3,7) + 0 z(1,3,6) + 0 z(1,3,5) + 0 z(1,3,4) + 0 z(1,3,3)
       + 0 z(1,3,2) + 0 z(1,3,1) + 0 z(1,3,0) + 0 z(2,0,7) + 0 z(2,0,6)
       + 0 z(2,0,5) + 0 z(2,0,4) + 0 z(2,0,3) + 0 z(2,0,2) + 0 z(2,0,1)
       + 0 z(2,0,0) + 0 z(2,1,7) + 0 z(2,1,6) + 0 z(2,1,5) + 0 z(2,1,4)
       + 0 z(2,1,3) + 0 z(2,1,2) + 0 z(2,1,1) + 0 z(2,1,0) + 0 z(2,2,7)
       + 0 z(2,2,6) + 0 z(2,2,5) + 0 z(2,2,4) + 0 z(2,2,3) + 0 z(2,2,2)
       + 0 z(2,2,1) + 0 z(2,2,0) + 0 z(2,3,7) + 0 z(2,3,6) + 0 z(2,3,5)
       + 0 z(2,3,4) + 0 z(2,3,3) + 0 z(2,3,2) + 0 z(2,3,1) + 0 z(2,3,0)
       + 0 z(3,0,7) + 0 z(3,0,6) + 0 z(3,0,5) + 0 z(3,0,4) + 0 z(3,0,3)
       + 0 z(3,0,2) + 0 z(3,0,1) + 0 z(3,0,0) + 0 z(3,1,7) + 0 z(3,1,6)
       + 0 z(3,1,5) + 0 z(3,1,4) + 0 z(3,1,3) + 0 z(3,1,2) + 0 z(3,1,1)
       + 0 z(3,1,0) + 0 z(3,2,7) + 0 z(3,2,6) + 0 z(3,2,5) + 0 z(3,2,4)
       + 0 z(3,2,3) + 0 z(3,2,2) + 0 z(3,2,1) + 0 z(3,2,0) + 0 z(3,3,7)
       + 0 z(3,3,6) + 0 z(3,3,5) + 0 z(3,3,4) + 0 z(3,3,3) + 0 z(3,3,2)
       + 0 z(3,3,1) + 0 z(3,3,0)
Subject To
 CU_Assignment(0)#0:  x_cu(0,7) + x_cu(0,6) + x_cu(0,5) + x_cu(0,4) + x_cu(0,3)
                      + x_cu(0,2) + x_cu(0,1) + x_cu(0,0)  = 1
 CU_Assignment(1)#1:  x_cu(1,7) + x_cu(1,6) + x_cu(1,5) + x_cu(1,4) + x_cu(1,3)
                      + x_cu(1,2) + x_cu(1,1) + x_cu(1,0)  = 1
 CU_Assignment(2)#2:  x_cu(2,7) + x_cu(2,6) + x_cu(2,5) + x_cu(2,4) + x_cu(2,3)
                      + x_cu(2,2) + x_cu(2,1) + x_cu(2,0)  = 1
 CU_Assignment(3)#3:  x_cu(3,7) + x_cu(3,6) + x_cu(3,5) + x_cu(3,4) + x_cu(3,3)
                      + x_cu(3,2) + x_cu(3,1) + x_cu(3,0)  = 1
 DU_Assignment(0)#4:  x_du(0,7) + x_du(0,6) + x_du(0,5) + x_du(0,4) + x_du(0,3)
                      + x_du(0,2) + x_du(0,1) + x_du(0,0)  = 1
 DU_Assignment(1)#5:  x_du(1,7) + x_du(1,6) + x_du(1,5) + x_du(1,4) + x_du(1,3)
                      + x_du(1,2) + x_du(1,1) + x_du(1,0)  = 1
 DU_Assignment(2)#6:  x_du(2,7) + x_du(2,6) + x_du(2,5) + x_du(2,4) + x_du(2,3)
                      + x_du(2,2) + x_du(2,1) + x_du(2,0)  = 1
 DU_Assignment(3)#7:  x_du(3,7) + x_du(3,6) + x_du(3,5) + x_du(3,4) + x_du(3,3)
                      + x_du(3,2) + x_du(3,1) + x_du(3,0)  = 1
 DU_Assignment(0)#8:  x_du(0,7) + x_du(0,6) + x_du(0,5) + x_du(0,4) + x_du(0,3)
                      + x_du(0,2) + x_du(0,1) + x_du(0,0)  = 1
 DU_Assignment(1)#9:  x_du(1,7) + x_du(1,6) + x_du(1,5) + x_du(1,4) + x_du(1,3)
                      + x_du(1,2) + x_du(1,1) + x_du(1,0)  = 1
 DU_Assignment(2)#10: x_du(2,7) + x_du(2,6) + x_du(2,5) + x_du(2,4) + x_du(2,3)
                      + x_du(2,2) + x_du(2,1) + x_du(2,0)  = 1
 DU_Assignment(3)#11: x_du(3,7) + x_du(3,6) + x_du(3,5) + x_du(3,4) + x_du(3,3)
                      + x_du(3,2) + x_du(3,1) + x_du(3,0)  = 1
Bounds
 0 <= x_cu(0,7) <= 1
 0 <= x_cu(0,6) <= 1
 0 <= x_cu(0,5) <= 1
 0 <= x_cu(0,4) <= 1
 0 <= x_cu(0,3) <= 1
 0 <= x_cu(0,2) <= 1
 0 <= x_cu(0,1) <= 1
 0 <= x_cu(0,0) <= 1
 0 <= x_cu(1,7) <= 1
 0 <= x_cu(1,6) <= 1
 0 <= x_cu(1,5) <= 1
 0 <= x_cu(1,4) <= 1
 0 <= x_cu(1,3) <= 1
 0 <= x_cu(1,2) <= 1
 0 <= x_cu(1,1) <= 1
 0 <= x_cu(1,0) <= 1
 0 <= x_cu(2,7) <= 1
 0 <= x_cu(2,6) <= 1
 0 <= x_cu(2,5) <= 1
 0 <= x_cu(2,4) <= 1
 0 <= x_cu(2,3) <= 1
 0 <= x_cu(2,2) <= 1
 0 <= x_cu(2,1) <= 1
 0 <= x_cu(2,0) <= 1
 0 <= x_cu(3,7) <= 1
 0 <= x_cu(3,6) <= 1
 0 <= x_cu(3,5) <= 1
 0 <= x_cu(3,4) <= 1
 0 <= x_cu(3,3) <= 1
 0 <= x_cu(3,2) <= 1
 0 <= x_cu(3,1) <= 1
 0 <= x_cu(3,0) <= 1
 0 <= x_du(0,7) <= 1
 0 <= x_du(0,6) <= 1
 0 <= x_du(0,5) <= 1
 0 <= x_du(0,4) <= 1
 0 <= x_du(0,3) <= 1
 0 <= x_du(0,2) <= 1
 0 <= x_du(0,1) <= 1
 0 <= x_du(0,0) <= 1
 0 <= x_du(1,7) <= 1
 0 <= x_du(1,6) <= 1
 0 <= x_du(1,5) <= 1
 0 <= x_du(1,4) <= 1
 0 <= x_du(1,3) <= 1
 0 <= x_du(1,2) <= 1
 0 <= x_du(1,1) <= 1
 0 <= x_du(1,0) <= 1
 0 <= x_du(2,7) <= 1
 0 <= x_du(2,6) <= 1
 0 <= x_du(2,5) <= 1
 0 <= x_du(2,4) <= 1
 0 <= x_du(2,3) <= 1
 0 <= x_du(2,2) <= 1
 0 <= x_du(2,1) <= 1
 0 <= x_du(2,0) <= 1
 0 <= x_du(3,7) <= 1
 0 <= x_du(3,6) <= 1
 0 <= x_du(3,5) <= 1
 0 <= x_du(3,4) <= 1
 0 <= x_du(3,3) <= 1
 0 <= x_du(3,2) <= 1
 0 <= x_du(3,1) <= 1
 0 <= x_du(3,0) <= 1
 0 <= z(0,0,7) <= 1
 0 <= z(0,0,6) <= 1
 0 <= z(0,0,5) <= 1
 0 <= z(0,0,4) <= 1
 0 <= z(0,0,3) <= 1
 0 <= z(0,0,2) <= 1
 0 <= z(0,0,1) <= 1
 0 <= z(0,0,0) <= 1
 0 <= z(0,1,7) <= 1
 0 <= z(0,1,6) <= 1
 0 <= z(0,1,5) <= 1
 0 <= z(0,1,4) <= 1
 0 <= z(0,1,3) <= 1
 0 <= z(0,1,2) <= 1
 0 <= z(0,1,1) <= 1
 0 <= z(0,1,0) <= 1
 0 <= z(0,2,7) <= 1
 0 <= z(0,2,6) <= 1
 0 <= z(0,2,5) <= 1
 0 <= z(0,2,4) <= 1
 0 <= z(0,2,3) <= 1
 0 <= z(0,2,2) <= 1
 0 <= z(0,2,1) <= 1
 0 <= z(0,2,0) <= 1
 0 <= z(0,3,7) <= 1
 0 <= z(0,3,6) <= 1
 0 <= z(0,3,5) <= 1
 0 <= z(0,3,4) <= 1
 0 <= z(0,3,3) <= 1
 0 <= z(0,3,2) <= 1
 0 <= z(0,3,1) <= 1
 0 <= z(0,3,0) <= 1
 0 <= z(1,0,7) <= 1
 0 <= z(1,0,6) <= 1
 0 <= z(1,0,5) <= 1
 0 <= z(1,0,4) <= 1
 0 <= z(1,0,3) <= 1
 0 <= z(1,0,2) <= 1
 0 <= z(1,0,1) <= 1
 0 <= z(1,0,0) <= 1
 0 <= z(1,1,7) <= 1
 0 <= z(1,1,6) <= 1
 0 <= z(1,1,5) <= 1
 0 <= z(1,1,4) <= 1
 0 <= z(1,1,3) <= 1
 0 <= z(1,1,2) <= 1
 0 <= z(1,1,1) <= 1
 0 <= z(1,1,0) <= 1
 0 <= z(1,2,7) <= 1
 0 <= z(1,2,6) <= 1
 0 <= z(1,2,5) <= 1
 0 <= z(1,2,4) <= 1
 0 <= z(1,2,3) <= 1
 0 <= z(1,2,2) <= 1
 0 <= z(1,2,1) <= 1
 0 <= z(1,2,0) <= 1
 0 <= z(1,3,7) <= 1
 0 <= z(1,3,6) <= 1
 0 <= z(1,3,5) <= 1
 0 <= z(1,3,4) <= 1
 0 <= z(1,3,3) <= 1
 0 <= z(1,3,2) <= 1
 0 <= z(1,3,1) <= 1
 0 <= z(1,3,0) <= 1
 0 <= z(2,0,7) <= 1
 0 <= z(2,0,6) <= 1
 0 <= z(2,0,5) <= 1
 0 <= z(2,0,4) <= 1
 0 <= z(2,0,3) <= 1
 0 <= z(2,0,2) <= 1
 0 <= z(2,0,1) <= 1
 0 <= z(2,0,0) <= 1
 0 <= z(2,1,7) <= 1
 0 <= z(2,1,6) <= 1
 0 <= z(2,1,5) <= 1
 0 <= z(2,1,4) <= 1
 0 <= z(2,1,3) <= 1
 0 <= z(2,1,2) <= 1
 0 <= z(2,1,1) <= 1
 0 <= z(2,1,0) <= 1
 0 <= z(2,2,7) <= 1
 0 <= z(2,2,6) <= 1
 0 <= z(2,2,5) <= 1
 0 <= z(2,2,4) <= 1
 0 <= z(2,2,3) <= 1
 0 <= z(2,2,2) <= 1
 0 <= z(2,2,1) <= 1
 0 <= z(2,2,0) <= 1
 0 <= z(2,3,7) <= 1
 0 <= z(2,3,6) <= 1
 0 <= z(2,3,5) <= 1
 0 <= z(2,3,4) <= 1
 0 <= z(2,3,3) <= 1
 0 <= z(2,3,2) <= 1
 0 <= z(2,3,1) <= 1
 0 <= z(2,3,0) <= 1
 0 <= z(3,0,7) <= 1
 0 <= z(3,0,6) <= 1
 0 <= z(3,0,5) <= 1
 0 <= z(3,0,4) <= 1
 0 <= z(3,0,3) <= 1
 0 <= z(3,0,2) <= 1
 0 <= z(3,0,1) <= 1
 0 <= z(3,0,0) <= 1
 0 <= z(3,1,7) <= 1
 0 <= z(3,1,6) <= 1
 0 <= z(3,1,5) <= 1
 0 <= z(3,1,4) <= 1
 0 <= z(3,1,3) <= 1
 0 <= z(3,1,2) <= 1
 0 <= z(3,1,1) <= 1
 0 <= z(3,1,0) <= 1
 0 <= z(3,2,7) <= 1
 0 <= z(3,2,6) <= 1
 0 <= z(3,2,5) <= 1
 0 <= z(3,2,4) <= 1
 0 <= z(3,2,3) <= 1
 0 <= z(3,2,2) <= 1
 0 <= z(3,2,1) <= 1
 0 <= z(3,2,0) <= 1
 0 <= z(3,3,7) <= 1
 0 <= z(3,3,6) <= 1
 0 <= z(3,3,5) <= 1
 0 <= z(3,3,4) <= 1
 0 <= z(3,3,3) <= 1
 0 <= z(3,3,2) <= 1
 0 <= z(3,3,1) <= 1
 0 <= z(3,3,0) <= 1
Binaries
 x_cu(0,7)  x_cu(0,6)  x_cu(0,5)  x_cu(0,4)  x_cu(0,3)  x_cu(0,2)  x_cu(0,1) 
 x_cu(0,0)  x_cu(1,7)  x_cu(1,6)  x_cu(1,5)  x_cu(1,4)  x_cu(1,3)  x_cu(1,2) 
 x_cu(1,1)  x_cu(1,0)  x_cu(2,7)  x_cu(2,6)  x_cu(2,5)  x_cu(2,4)  x_cu(2,3) 
 x_cu(2,2)  x_cu(2,1)  x_cu(2,0)  x_cu(3,7)  x_cu(3,6)  x_cu(3,5)  x_cu(3,4) 
 x_cu(3,3)  x_cu(3,2)  x_cu(3,1)  x_cu(3,0)  x_du(0,7)  x_du(0,6)  x_du(0,5) 
 x_du(0,4)  x_du(0,3)  x_du(0,2)  x_du(0,1)  x_du(0,0)  x_du(1,7)  x_du(1,6) 
 x_du(1,5)  x_du(1,4)  x_du(1,3)  x_du(1,2)  x_du(1,1)  x_du(1,0)  x_du(2,7) 
 x_du(2,6)  x_du(2,5)  x_du(2,4)  x_du(2,3)  x_du(2,2)  x_du(2,1)  x_du(2,0) 
 x_du(3,7)  x_du(3,6)  x_du(3,5)  x_du(3,4)  x_du(3,3)  x_du(3,2)  x_du(3,1) 
 x_du(3,0)  z(0,0,7)  z(0,0,6)  z(0,0,5)  z(0,0,4)  z(0,0,3)  z(0,0,2) 
 z(0,0,1)  z(0,0,0)  z(0,1,7)  z(0,1,6)  z(0,1,5)  z(0,1,4)  z(0,1,3) 
 z(0,1,2)  z(0,1,1)  z(0,1,0)  z(0,2,7)  z(0,2,6)  z(0,2,5)  z(0,2,4) 
 z(0,2,3)  z(0,2,2)  z(0,2,1)  z(0,2,0)  z(0,3,7)  z(0,3,6)  z(0,3,5) 
 z(0,3,4)  z(0,3,3)  z(0,3,2)  z(0,3,1)  z(0,3,0)  z(1,0,7)  z(1,0,6) 
 z(1,0,5)  z(1,0,4)  z(1,0,3)  z(1,0,2)  z(1,0,1)  z(1,0,0)  z(1,1,7) 
 z(1,1,6)  z(1,1,5)  z(1,1,4)  z(1,1,3)  z(1,1,2)  z(1,1,1)  z(1,1,0) 
 z(1,2,7)  z(1,2,6)  z(1,2,5)  z(1,2,4)  z(1,2,3)  z(1,2,2)  z(1,2,1) 
 z(1,2,0)  z(1,3,7)  z(1,3,6)  z(1,3,5)  z(1,3,4)  z(1,3,3)  z(1,3,2) 
 z(1,3,1)  z(1,3,0)  z(2,0,7)  z(2,0,6)  z(2,0,5)  z(2,0,4)  z(2,0,3) 
 z(2,0,2)  z(2,0,1)  z(2,0,0)  z(2,1,7)  z(2,1,6)  z(2,1,5)  z(2,1,4) 
 z(2,1,3)  z(2,1,2)  z(2,1,1)  z(2,1,0)  z(2,2,7)  z(2,2,6)  z(2,2,5) 
 z(2,2,4)  z(2,2,3)  z(2,2,2)  z(2,2,1)  z(2,2,0)  z(2,3,7)  z(2,3,6) 
 z(2,3,5)  z(2,3,4)  z(2,3,3)  z(2,3,2)  z(2,3,1)  z(2,3,0)  z(3,0,7) 
 z(3,0,6)  z(3,0,5)  z(3,0,4)  z(3,0,3)  z(3,0,2)  z(3,0,1)  z(3,0,0) 
 z(3,1,7)  z(3,1,6)  z(3,1,5)  z(3,1,4)  z(3,1,3)  z(3,1,2)  z(3,1,1) 
 z(3,1,0)  z(3,2,7)  z(3,2,6)  z(3,2,5)  z(3,2,4)  z(3,2,3)  z(3,2,2) 
 z(3,2,1)  z(3,2,0)  z(3,3,7)  z(3,3,6)  z(3,3,5)  z(3,3,4)  z(3,3,3) 
 z(3,3,2)  z(3,3,1)  z(3,3,0) 
End
